300
125 125
1 87 808
2 87 234
3 87 146
4 87 641
5 87 830
6 87 491
7 87 477
8 87 891
9 87 540
10 86 774
11 85 851
12 85 483
13 85 541
14 85 567
15 85 930
16 84 201
17 84 771
18 84 356
19 82 294
20 82 773
21 82 214
22 82 779
23 81 411
24 80 169
25 80 98
26 79 897
27 79 411
28 79 953
29 79 636
30 78 680
31 78 976
32 78 498
33 78 470
34 78 940
35 77 443
36 77 924
37 77 10
38 77 110
39 77 525
40 76 145
41 76 495
42 76 552
43 75 899
44 75 764
45 75 396
46 74 448
47 74 299
48 74 97
49 74 628
50 74 141
51 74 420
52 74 737
53 74 690
54 74 883
55 73 594
56 73 5
57 73 195
58 73 280
59 73 477
60 72 979
61 72 251
62 72 316
63 72 497
64 72 762
65 72 125
66 72 711
67 72 989
68 71 887
69 71 14
70 71 17
71 70 295
72 70 501
73 70 203
74 69 916
75 69 559
76 69 862
77 69 826
78 69 558
79 69 985
80 69 456
81 69 702
82 68 842
83 68 364
84 67 232
85 67 462
86 66 21
87 66 260
88 66 653
89 66 241
90 66 164
91 66 445
92 66 217
93 65 92
94 65 823
95 64 562
96 64 145
97 64 978
98 64 85
99 64 364
100 63 720
101 63 781
102 62 681
103 62 985
104 62 724
105 62 641
106 61 265
107 61 490
108 61 403
109 61 417
110 61 617
111 61 204
112 60 204
113 60 733
114 60 175
115 60 42
116 60 312
117 60 364
118 59 258
119 59 964
120 59 684
121 59 678
122 59 748
123 59 710
124 59 977
125 59 111
126 58 211
127 58 739
128 58 904
129 58 312
130 58 405
131 58 793
132 57 71
133 57 170
134 57 89
135 57 827
136 57 904
137 57 385
138 57 108
139 57 765
140 56 925
141 56 23
142 56 829
143 56 109
144 56 331
145 56 839
146 55 245
147 55 482
148 55 588
149 55 756
150 55 172
151 55 431
152 54 783
153 54 669
154 54 706
155 54 904
156 54 547
157 54 384
158 54 27
159 53 925
160 53 131
161 52 711
162 52 782
163 52 635
164 51 715
165 51 987
166 51 546
167 51 616
168 51 380
169 51 252
170 50 349
171 50 567
172 49 653
173 49 394
174 49 986
175 49 580
176 48 922
177 48 801
178 48 671
179 48 157
180 47 267
181 47 980
182 47 789
183 47 712
184 46 783
185 46 995
186 46 59
187 46 556
188 46 465
189 46 564
190 46 827
191 46 884
192 46 479
193 45 283
194 45 120
195 45 948
196 45 37
197 45 647
198 45 267
199 44 374
200 44 497
201 44 175
202 44 411
203 44 326
204 43 125
205 42 540
206 42 560
207 42 717
208 42 792
209 42 369
210 42 739
211 42 383
212 42 389
213 42 169
214 41 139
215 41 128
216 41 742
217 41 116
218 40 727
219 40 628
220 40 836
221 40 266
222 39 190
223 39 11
224 39 388
225 38 689
226 38 211
227 38 748
228 38 716
229 38 978
230 38 817
231 38 430
232 38 3
233 38 854
234 37 401
235 37 152
236 37 993
237 37 754
238 37 48
239 37 305
240 36 502
241 36 374
242 36 588
243 36 417
244 36 306
245 36 944
246 36 714
247 36 734
248 35 594
249 35 821
250 35 246
251 34 279
252 34 882
253 34 391
254 33 229
255 33 82
256 33 340
257 33 137
258 33 757
259 33 864
260 33 989
261 33 907
262 33 833
263 32 946
264 32 33
265 32 524
266 31 734
267 30 124
268 30 938
269 30 884
270 30 253
271 29 392
272 29 22
273 29 167
274 29 6
275 28 684
276 28 6
277 28 417
278 28 688
279 28 614
280 28 899
281 28 192
282 27 482
283 27 618
284 27 959
285 27 205
286 27 612
287 27 53
288 27 250
289 26 816
290 26 277
291 26 780
292 26 146
293 26 770
294 25 762
295 25 448
296 25 768
297 25 979
298 25 237
299 25 22
300 25 411
